datasets/2-dimensional/CL_03_25_10.vbp
2
1000 1000 
25
448 602 30
391 555 72
537 279 4
221 706 88
775 571 54
733 606 64
629 545 90
595 321 26
365 668 94
472 718 28
449 406 72
631 465 49
349 627 54
339 226 19
332 597 28
262 271 61
263 382 84
668 464 23
210 249 67
223 272 53
439 666 54
793 563 16
217 497 9
245 603 54
211 612 77
