datasets/2-dimensional/CL_03_25_10.txt
1000 1000 
0 30 448 602 
1 72 391 555 
2 4 537 279 
3 88 221 706 
4 54 775 571 
5 64 733 606 
6 90 629 545 
7 26 595 321 
8 94 365 668 
9 28 472 718 
10 72 449 406 
11 49 631 465 
12 54 349 627 
13 19 339 226 
14 28 332 597 
15 61 262 271 
16 84 263 382 
17 23 668 464 
18 67 210 249 
19 53 223 272 
20 54 439 666 
21 16 793 563 
22 9 217 497 
23 54 245 603 
24 77 211 612 
